79
400
316	1
315	1
312	1
307	2
304	1
302	2
301	1
298	1
297	2
294	1
293	2
292	2
291	3
290	1
289	1
287	1
283	1
282	1
280	1
279	1
276	1
275	1
269	1
267	2
260	1
251	2
243	3
242	1
239	1
238	1
236	1
232	1
230	1
224	1
223	1
222	1
221	1
219	2
218	2
216	1
208	1
200	1
192	1
187	2
186	2
180	2
176	2
171	1
170	1
166	1
163	1
156	2
148	1
138	1
137	1
135	1
130	1
129	1
128	2
125	1
123	1
122	1
119	2
117	1
113	1
112	1
109	1
108	1
107	1
104	1
101	1
100	1
99	2
98	1
94	1
90	1
85	1
83	1
81	1
